NAME : instances/20-120-tsp/instance-31.tsp
COMMENT : No Comment
TYPE : TSP
DIMENSION: 31
EDGE_WEIGHT_TYPE : EUC_2D
NODE_COORD_SECTION
1 4164 7367 
2 7455 2013 
3 5730 7571 
4 6413 9613 
5 3505 9761 
6 6856 4367 
7 5149 120 
8 2458 1713 
9 8780 2492 
10 9101 3903 
11 9355 7690 
12 9956 1971 
13 8536 9005 
14 6698 9019 
15 2685 1276 
16 5605 5189 
17 1025 269 
18 7771 688 
19 9785 9293 
20 914 2665 
21 7933 9667 
22 6643 9204 
23 8510 1382 
24 6512 9469 
25 5998 5592 
26 26 3945 
27 5341 9975 
28 545 2944 
29 567 1176 
30 1432 6463 
31 151 2649 
EOF
